results_rootrelaxation/bin012_070_016.srr.sol
solution status: optimal solution found
objective value:                     10.3435897435897
_var701_                            0.446153846153846 	(obj:0)
_var704_                            0.374358974358974 	(obj:0)
_var724_                           0.0256410256410262 	(obj:2)
_var735_                            0.128205128205128 	(obj:0)
_var741_                            0.312820512820512 	(obj:0)
_var749_                            0.092307692307693 	(obj:2)
_var755_                            0.112820512820512 	(obj:1)
_var758_                            0.569230769230769 	(obj:1)
_var760_                           0.0820512820512811 	(obj:2)
_var764_                            0.194871794871795 	(obj:1)
_var767_                            0.123076923076923 	(obj:0)
_var775_                            0.215384615384616 	(obj:1)
_var781_                            0.456410256410257 	(obj:1)
_var788_                            0.430769230769231 	(obj:1)
_var794_                            0.184615384615385 	(obj:0)
_var801_                           0.0615384615384616 	(obj:1)
_var806_                           0.0769230769230784 	(obj:1)
_var808_                            0.430769230769231 	(obj:1)
_var815_                            0.117948717948718 	(obj:1)
_var823_                            0.430769230769231 	(obj:2)
_var825_                           0.0615384615384613 	(obj:0)
_var842_                            0.210256410256411 	(obj:0)
_var843_                            0.123076923076923 	(obj:1)
_var846_                           0.0615384615384613 	(obj:1)
_var849_                          0.00512820512820422 	(obj:2)
_var850_                            0.338461538461539 	(obj:2)
_var851_                            0.061538461538462 	(obj:1)
_var852_                           0.0307692307692322 	(obj:2)
_var853_                           0.0358974358974348 	(obj:1)
_var855_                            0.430769230769231 	(obj:1)
_var859_                             0.01025641025641 	(obj:1)
_var860_                            0.215384615384616 	(obj:1)
_var862_                            0.287179487179487 	(obj:1)
_var864_                           0.0512820512820514 	(obj:1)
_var865_                            0.102564102564104 	(obj:0)
_var869_                            0.107692307692308 	(obj:1)
_var870_                           0.0410256410256415 	(obj:2)
_var871_                            0.348717948717949 	(obj:2)
_var872_                            0.369230769230769 	(obj:1)
_var873_                            0.184615384615385 	(obj:0)
_var879_                            0.215384615384616 	(obj:0)
_var881_                            0.102564102564102 	(obj:1)
_var884_                           0.0974358974358966 	(obj:1)
_var885_                            0.123076923076923 	(obj:1)
_var886_                             0.23076923076923 	(obj:0)
_var888_                            0.148717948717948 	(obj:1)
_var892_                            0.153846153846154 	(obj:1)
_var893_                           0.0307692307692292 	(obj:1)
_var894_                            0.276923076923076 	(obj:2)
_var898_                            0.153846153846154 	(obj:0)
_var899_                            0.276923076923077 	(obj:1)
_var901_                            0.112820512820512 	(obj:1)
_var902_                           0.0717948717948727 	(obj:1)
_var904_                            0.205128205128205 	(obj:2)
_var905_                            0.266666666666667 	(obj:1)
_var906_                            0.246153846153846 	(obj:1)
_var907_                            0.092307692307692 	(obj:3)
_var911_                           0.0102564102564109 	(obj:2)
_var913_                           0.0615384615384613 	(obj:1)
_var916_                           0.0102564102564097 	(obj:1)
_var917_                             0.16923076923077 	(obj:1)
