results_rootrelaxation/bin012_070_016.srr.log
SCIP version 8.0.3.5 [precision: 8 byte] [memory: block] [mode: optimized] [LP solver: Soplex 6.0.1.3] [GitHash: 438792519e]
Copyright (c) 2002-2023 Zuse Institute Berlin (ZIB)

External libraries: 
  Readline 8.1         GNU library for command line editing (gnu.org/s/readline)
  Soplex 6.0.1.3       Linear Programming Solver developed at Zuse Institute Berlin (soplex.zib.de) [GitHash: 713be0fe]
  CppAD 20180000.0     Algorithmic Differentiation of C++ algorithms developed by B. Bell (github.com/coin-or/CppAD)
  ZLIB 1.2.11          General purpose compression library by J. Gailly and M. Adler (zlib.net)
  bliss 0.77           Computing Graph Automorphism Groups by T. Junttila and P. Kaski (www.tcs.hut.fi/Software/bliss/)

user parameter file <scip.set> not found - using default parameters

srr/relaxation = TRUE

read problem <instances/bin012_070_016.srr>
============

Original problem: 
original problem has 0 variables (0 bin, 0 int, 0 impl, 0 cont) and 77 constraints

presolving:
presolving (1 rounds: 1 fast, 1 medium, 1 exhaustive):
 0 deleted vars, 0 deleted constraints, 0 added constraints, 0 tightened bounds, 0 added holes, 0 changed sides, 0 changed coefficients
 0 implications, 0 cliques
presolved problem has 0 variables (0 bin, 0 int, 0 impl, 0 cont) and 77 constraints
     77 constraints of type <linear>
Presolving Time: 0.00

 time | node  | left  |LP iter|LP it/n|mem/heur|mdpt |vars |cons |rows |cuts |sepa|confs|strbr|  dualbound   | primalbound  |  gap   | compl. 
  0.0s|     1 |     0 |     1 |     - |   710k |   0 |   1 |  77 |  77 |   0 |  0 |   0 |   0 |      --      |      --      |    Inf | unknown
r 0.1s|     1 |     0 |  1363 |     - |simplero|   0 | 687 |  77 |  77 |   0 |  0 |   0 |   0 |      --      | 2.640594e+01 |    Inf | unknown
r 0.1s|     1 |     0 |  1397 |     - |simplero|   0 | 698 |  77 |  77 |   0 |  0 |   0 |   0 |      --      | 2.555398e+01 |    Inf | unknown
r 0.1s|     1 |     0 |  1448 |     - |simplero|   0 | 709 |  77 |  77 |   0 |  0 |   0 |   0 |      --      | 2.403630e+01 |    Inf | unknown
r 0.1s|     1 |     0 |  1490 |     - |simplero|   0 | 720 |  77 |  77 |   0 |  0 |   0 |   0 |      --      | 2.218442e+01 |    Inf | unknown
r 0.1s|     1 |     0 |  1559 |     - |simplero|   0 | 731 |  77 |  77 |   0 |  0 |   0 |   0 |      --      | 1.959902e+01 |    Inf | unknown
r 0.1s|     1 |     0 |  1621 |     - |simplero|   0 | 742 |  77 |  77 |   0 |  0 |   0 |   0 |      --      | 1.815374e+01 |    Inf | unknown
r 0.1s|     1 |     0 |  1658 |     - |simplero|   0 | 753 |  77 |  77 |   0 |  0 |   0 |   0 |      --      | 1.731941e+01 |    Inf | unknown
r 0.1s|     1 |     0 |  1693 |     - |simplero|   0 | 764 |  77 |  77 |   0 |  0 |   0 |   0 |      --      | 1.659456e+01 |    Inf | unknown
r 0.1s|     1 |     0 |  1708 |     - |simplero|   0 | 764 |  77 |  77 |   0 |  0 |   0 |   0 |      --      | 1.651168e+01 |    Inf | unknown
r 0.1s|     1 |     0 |  1715 |     - |simplero|   0 | 764 |  77 |  77 |   0 |  0 |   0 |   0 |      --      | 1.646988e+01 |    Inf | unknown
r 0.1s|     1 |     0 |  1760 |     - |simplero|   0 | 775 |  77 |  77 |   0 |  0 |   0 |   0 |      --      | 1.503702e+01 |    Inf | unknown
r 0.1s|     1 |     0 |  1786 |     - |simplero|   0 | 775 |  77 |  77 |   0 |  0 |   0 |   0 |      --      | 1.480620e+01 |    Inf | unknown
r 0.1s|     1 |     0 |  1799 |     - |simplero|   0 | 775 |  77 |  77 |   0 |  0 |   0 |   0 |      --      | 1.475164e+01 |    Inf | unknown
r 0.1s|     1 |     0 |  1829 |     - |simplero|   0 | 786 |  77 |  77 |   0 |  0 |   0 |   0 |      --      | 1.388208e+01 |    Inf | unknown
 time | node  | left  |LP iter|LP it/n|mem/heur|mdpt |vars |cons |rows |cuts |sepa|confs|strbr|  dualbound   | primalbound  |  gap   | compl. 
r 0.1s|     1 |     0 |  1854 |     - |simplero|   0 | 786 |  77 |  77 |   0 |  0 |   0 |   0 |      --      | 1.367597e+01 |    Inf | unknown
r 0.1s|     1 |     0 |  1857 |     - |simplero|   0 | 786 |  77 |  77 |   0 |  0 |   0 |   0 |      --      | 1.367448e+01 |    Inf | unknown
r 0.1s|     1 |     0 |  1858 |     - |simplero|   0 | 786 |  77 |  77 |   0 |  0 |   0 |   0 |      --      | 1.367361e+01 |    Inf | unknown
r 0.1s|     1 |     0 |  1901 |     - |simplero|   0 | 797 |  77 |  77 |   0 |  0 |   0 |   0 |      --      | 1.269274e+01 |    Inf | unknown
r 0.1s|     1 |     0 |  1908 |     - |simplero|   0 | 797 |  77 |  77 |   0 |  0 |   0 |   0 |      --      | 1.264658e+01 |    Inf | unknown
r 0.1s|     1 |     0 |  1924 |     - |simplero|   0 | 808 |  77 |  77 |   0 |  0 |   0 |   0 |      --      | 1.241295e+01 |    Inf | unknown
r 0.1s|     1 |     0 |  1931 |     - |simplero|   0 | 808 |  77 |  77 |   0 |  0 |   0 |   0 |      --      | 1.238216e+01 |    Inf | unknown
r 0.1s|     1 |     0 |  1938 |     - |simplero|   0 | 808 |  77 |  77 |   0 |  0 |   0 |   0 |      --      | 1.236479e+01 |    Inf | unknown
r 0.1s|     1 |     0 |  1967 |     - |simplero|   0 | 819 |  77 |  77 |   0 |  0 |   0 |   0 |      --      | 1.192638e+01 |    Inf | unknown
r 0.1s|     1 |     0 |  2002 |     - |simplero|   0 | 830 |  77 |  77 |   0 |  0 |   0 |   0 |      --      | 1.163823e+01 |    Inf | unknown
r 0.1s|     1 |     0 |  2009 |     - |simplero|   0 | 830 |  77 |  77 |   0 |  0 |   0 |   0 |      --      | 1.162729e+01 |    Inf | unknown
r 0.1s|     1 |     0 |  2049 |     - |simplero|   0 | 841 |  77 |  77 |   0 |  0 |   0 |   0 |      --      | 1.134951e+01 |    Inf | unknown
r 0.1s|     1 |     0 |  2052 |     - |simplero|   0 | 841 |  77 |  77 |   0 |  0 |   0 |   0 |      --      | 1.134886e+01 |    Inf | unknown
r 0.1s|     1 |     0 |  2089 |     - |simplero|   0 | 852 |  77 |  77 |   0 |  0 |   0 |   0 |      --      | 1.115303e+01 |    Inf | unknown
r 0.1s|     1 |     0 |  2094 |     - |simplero|   0 | 852 |  77 |  77 |   0 |  0 |   0 |   0 |      --      | 1.114768e+01 |    Inf | unknown
 time | node  | left  |LP iter|LP it/n|mem/heur|mdpt |vars |cons |rows |cuts |sepa|confs|strbr|  dualbound   | primalbound  |  gap   | compl. 
r 0.1s|     1 |     0 |  2095 |     - |simplero|   0 | 852 |  77 |  77 |   0 |  0 |   0 |   0 |      --      | 1.114740e+01 |    Inf | unknown
r 0.1s|     1 |     0 |  2121 |     - |simplero|   0 | 863 |  77 |  77 |   0 |  0 |   0 |   0 |      --      | 1.102651e+01 |    Inf | unknown
r 0.1s|     1 |     0 |  2148 |     - |simplero|   0 | 874 |  77 |  77 |   0 |  0 |   0 |   0 |      --      | 1.074017e+01 |    Inf | unknown
  0.1s|     1 |     0 |  2157 |     - |  4157k |   0 | 874 |  77 |  77 |   0 |  0 |   0 |   0 |      --      | 1.074017e+01 |    Inf | unknown
r 0.1s|     1 |     0 |  2157 |     - |simplero|   0 | 874 |  77 |  77 |   0 |  0 |   0 |   0 |      --      | 1.069192e+01 |    Inf | unknown
r 0.1s|     1 |     0 |  2160 |     - |simplero|   0 | 874 |  77 |  77 |   0 |  0 |   0 |   0 |      --      | 1.069123e+01 |    Inf | unknown
r 0.1s|     1 |     0 |  2191 |     - |simplero|   0 | 884 |  77 |  77 |   0 |  0 |   0 |   0 |      --      | 1.055659e+01 |    Inf | unknown
r 0.1s|     1 |     0 |  2213 |     - |simplero|   0 | 893 |  77 |  77 |   0 |  0 |   0 |   0 |      --      | 1.048426e+01 |    Inf | unknown
r 0.1s|     1 |     0 |  2238 |     - |simplero|   0 | 902 |  77 |  77 |   0 |  0 |   0 |   0 |      --      | 1.042244e+01 |    Inf | unknown
r 0.1s|     1 |     0 |  2246 |     - |simplero|   0 | 902 |  77 |  77 |   0 |  0 |   0 |   0 |      --      | 1.041379e+01 |    Inf | unknown
r 0.1s|     1 |     0 |  2262 |     - |simplero|   0 | 908 |  77 |  77 |   0 |  0 |   0 |   0 |      --      | 1.035616e+01 |    Inf | unknown
r 0.1s|     1 |     0 |  2265 |     - |simplero|   0 | 908 |  77 |  77 |   0 |  0 |   0 |   0 |      --      | 1.035465e+01 |    Inf | unknown
r 0.1s|     1 |     0 |  2277 |     - |simplero|   0 | 913 |  77 |  77 |   0 |  0 |   0 |   0 |      --      | 1.035057e+01 |    Inf | unknown
r 0.1s|     1 |     0 |  2285 |     - |simplero|   0 | 917 |  77 |  77 |   0 |  0 |   0 |   0 |      --      | 1.034632e+01 |    Inf | unknown
r 0.1s|     1 |     0 |  2295 |     - |simplero|   0 | 919 |  77 |  77 |   0 |  0 |   0 |   0 |      --      | 1.034454e+01 |    Inf | unknown
 time | node  | left  |LP iter|LP it/n|mem/heur|mdpt |vars |cons |rows |cuts |sepa|confs|strbr|  dualbound   | primalbound  |  gap   | compl. 
r 0.1s|     1 |     0 |  2297 |     - |simplero|   0 | 919 |  77 |  77 |   0 |  0 |   0 |   0 |      --      | 1.034359e+01 |    Inf | unknown
  0.1s|     1 |     0 |  2297 |     - |  4335k |   0 | 919 |  77 |  77 |   0 |  0 |   0 |   0 | 1.034359e+01 | 1.034359e+01 |   0.00%| unknown
  0.1s|     1 |     0 |  2297 |     - |  4335k |   0 | 919 |  77 |  77 |   0 |  0 |   0 |   0 | 1.034359e+01 | 1.034359e+01 |   0.00%| unknown

SCIP Status        : problem is solved [optimal solution found]
Solving Time (sec) : 0.12
Solving Nodes      : 1
Primal Bound       : +1.03435897435897e+01 (44 solutions)
Dual Bound         : +1.03435897435897e+01
Gap                : 0.00 %

written transformed problem to file <results_rootrelaxation/bin012_070_016.srr.lp>
written transformed problem to file <results_rootrelaxation/bin012_070_016.srr.cip>

written solution information to file <results_rootrelaxation/bin012_070_016.srr.sol>



